Academic license - for non-commercial use only
Gurobi Optimizer version 9.0.3 build v9.0.3rc0 (mac64)
Optimize a model with 255286 rows, 240480 columns and 1381170 nonzeros
Model fingerprint: 0x382f9a9d
Variable types: 0 continuous, 240480 integer (240480 binary)
Coefficient statistics:
  Matrix range     [1e+00, 1e+00]
  Objective range  [1e+01, 1e+05]
  Bounds range     [1e+00, 1e+00]
  RHS range        [1e+00, 1e+03]
Presolve added 0 rows and 5970 columns
Presolve removed 30 rows and 0 columns
Presolve time: 4.11s
Presolved: 255256 rows, 246450 columns, 1039110 nonzeros
Variable types: 0 continuous, 246450 integer (246450 binary)
Found heuristic solution: objective 676302.00000

Concurrent LP optimizer: dual simplex and barrier
Showing barrier log only...

Root barrier log...

Ordering time: 0.07s

Barrier statistics:
 Dense cols : 240
 AA' NZ     : 8.111e+05
 Factor NZ  : 3.235e+06 (roughly 230 MBytes of memory)
 Factor Ops : 4.332e+08 (less than 1 second per iteration)
 Threads    : 3

                  Objective                Residual
Iter       Primal          Dual         Primal    Dual     Compl     Time
   0   3.32088845e+08 -5.02737393e+08  3.81e+02 3.35e+01  3.14e+04     8s
   1   2.91073651e+06 -5.33740496e+08  1.90e+01 2.53e+04  1.24e+03     9s
   2   1.49316005e+06 -1.30830420e+08  6.75e+00 3.41e+03  3.21e+02     9s
   3   9.82693646e+05 -4.94380970e+07  2.34e+00 6.70e+02  1.01e+02     9s
   4   7.72224173e+05 -8.57317056e+06  5.92e-01 5.17e+01  1.51e+01     9s
   5   6.95242634e+05 -7.50724164e+05  1.88e-01 4.68e+00  2.07e+00    10s
   6   6.53283780e+05  1.14472900e+05  1.21e-01 1.29e+00  7.39e-01    10s
   7   6.26791905e+05  3.40900874e+05  9.12e-02 4.94e-01  3.83e-01    10s
   8   6.16038449e+05  4.18628177e+05  8.22e-02 3.01e-01  2.60e-01    11s
   9   6.04812250e+05  4.44342753e+05  7.37e-02 2.56e-01  2.10e-01    11s
  10   5.99301598e+05  4.56561785e+05  6.96e-02 2.01e-01  1.86e-01    11s
  11   5.89447594e+05  4.70858377e+05  6.30e-02 1.53e-01  1.53e-01    11s
  12   5.80484151e+05  4.81298160e+05  5.65e-02 1.07e-01  1.27e-01    12s
  13   5.68092624e+05  4.88772882e+05  4.87e-02 6.76e-02  1.01e-01    12s
  14   5.60838434e+05  4.92711314e+05  4.38e-02 5.58e-02  8.67e-02    13s
  15   5.51276178e+05  4.95985306e+05  3.73e-02 4.95e-02  7.00e-02    13s
  16   5.41775377e+05  4.97568876e+05  3.04e-02 4.15e-02  5.59e-02    13s
  17   5.36208307e+05  4.98859373e+05  2.63e-02 3.08e-02  4.71e-02    13s
  18   5.28271185e+05  4.99785254e+05  2.04e-02 2.31e-02  3.59e-02    14s
  19   5.24359271e+05  5.00240811e+05  1.74e-02 1.95e-02  3.04e-02    14s
  20   5.21972586e+05  5.00625347e+05  1.57e-02 1.63e-02  2.68e-02    14s
  21   5.20042258e+05  5.01281641e+05  1.41e-02 1.32e-02  2.35e-02    15s
  22   5.16785119e+05  5.01745346e+05  1.17e-02 1.61e-02  1.88e-02    15s
  23   5.14430139e+05  5.01967759e+05  9.73e-03 1.33e-02  1.56e-02    15s
  24   5.12737555e+05  5.02341081e+05  8.33e-03 9.07e-03  1.30e-02    15s
  25   5.11737644e+05  5.02494215e+05  7.44e-03 9.52e-03  1.15e-02    16s
  26   5.09997942e+05  5.02619604e+05  6.11e-03 1.07e-02  9.18e-03    16s
  27   5.08836161e+05  5.02820798e+05  5.25e-03 9.37e-03  7.45e-03    16s
  28   5.07455162e+05  5.02882148e+05  4.06e-03 7.49e-03  5.65e-03    17s
  29   5.06917432e+05  5.02935968e+05  3.62e-03 6.30e-03  4.91e-03    17s
  30   5.06315743e+05  5.03009152e+05  3.06e-03 4.36e-03  4.07e-03    17s
  31   5.05585508e+05  5.03060579e+05  2.34e-03 3.21e-03  3.11e-03    18s
  32   5.05252000e+05  5.03093118e+05  2.02e-03 2.65e-03  2.66e-03    18s
  33   5.04858589e+05  5.03119803e+05  1.64e-03 2.23e-03  2.14e-03    18s
  34   5.04580905e+05  5.03156055e+05  1.38e-03 1.62e-03  1.75e-03    18s
  35   5.04333132e+05  5.03168713e+05  1.15e-03 1.32e-03  1.42e-03    19s
  36   5.04164157e+05  5.03193928e+05  9.83e-04 8.17e-04  1.18e-03    19s
  37   5.03999804e+05  5.03200140e+05  8.27e-04 6.61e-04  9.74e-04    19s
  38   5.03835386e+05  5.03213656e+05  6.52e-04 4.60e-04  7.56e-04    20s
  39   5.03694780e+05  5.03217411e+05  5.01e-04 3.68e-04  5.80e-04    20s
  40   5.03607579e+05  5.03222542e+05  4.12e-04 2.94e-04  4.67e-04    20s
  41   5.03569450e+05  5.03224000e+05  3.75e-04 2.62e-04  4.18e-04    20s
  42   5.03495127e+05  5.03227120e+05  2.95e-04 2.00e-04  3.24e-04    21s
  43   5.03453752e+05  5.03231511e+05  2.49e-04 1.41e-04  2.68e-04    21s
  44   5.03397209e+05  5.03232508e+05  1.85e-04 1.24e-04  1.99e-04    21s
  45   5.03370926e+05  5.03235610e+05  1.57e-04 8.25e-05  1.63e-04    22s
  46   5.03346267e+05  5.03236949e+05  1.29e-04 5.89e-05  1.31e-04    22s
  47   5.03319731e+05  5.03237712e+05  9.63e-05 4.66e-05  9.84e-05    22s
  48   5.03299045e+05  5.03238632e+05  7.10e-05 3.35e-05  7.25e-05    22s
  49   5.03286698e+05  5.03239379e+05  5.55e-05 2.36e-05  5.68e-05    23s
  50   5.03273428e+05  5.03239796e+05  3.91e-05 1.83e-05  4.04e-05    23s
  51   5.03266083e+05  5.03240185e+05  3.03e-05 1.37e-05  3.11e-05    23s
  52   5.03260390e+05  5.03240642e+05  2.32e-05 9.87e-06  2.37e-05    24s
  53   5.03254574e+05  5.03241110e+05  1.63e-05 4.91e-06  1.61e-05    24s
  54   5.03251163e+05  5.03241390e+05  1.19e-05 2.36e-06  1.17e-05    24s
  55   5.03243984e+05  5.03241636e+05  2.72e-06 5.29e-07  2.82e-06    24s
  56   5.03243058e+05  5.03241765e+05  1.56e-06 3.45e-08  1.55e-06    25s
  57   5.03242157e+05  5.03241774e+05  4.18e-07 1.99e-07  4.64e-07    25s
  58   5.03241822e+05  5.03241797e+05  7.78e-09 1.07e-07  3.21e-08    25s
  59   5.03241822e+05  5.03241797e+05  7.72e-09 1.06e-07  3.18e-08    25s
  60   5.03241822e+05  5.03241797e+05  7.72e-09 1.06e-07  3.18e-08    26s
  61   5.03241822e+05  5.03241797e+05  7.72e-09 9.45e-08  3.18e-08    26s

Barrier solved model in 61 iterations and 25.96 seconds
Optimal objective 5.03241822e+05


Root crossover log...

   90400 DPushes remaining with DInf 0.0000000e+00                26s
       0 DPushes remaining with DInf 0.0000000e+00                27s

    1672 PPushes remaining with PInf 1.3886891e-06                27s
       0 PPushes remaining with PInf 1.7756104e-04                27s

  Push phase complete: Pinf 1.7756104e-04, Dinf 8.5875218e-10     27s


Root simplex log...

Iteration    Objective       Primal Inf.    Dual Inf.      Time
   16851    5.0324181e+05   1.775610e-04   0.000000e+00     27s
   16853    5.0324181e+05   0.000000e+00   0.000000e+00     27s

Solved with barrier

Root relaxation: objective 5.032418e+05, 16853 iterations, 20.22 seconds

    Nodes    |    Current Node    |     Objective Bounds      |     Work
 Expl Unexpl |  Obj  Depth IntInf | Incumbent    BestBd   Gap | It/Node Time

     0     0 503241.810    0 30624 676302.000 503241.810  25.6%     -   30s
H    0     0                    535018.00000 503241.810  5.94%     -   32s
H    0     0                    534166.00000 503241.810  5.79%     -   35s
     0     0 503241.810    0 30624 534166.000 503241.810  5.79%     -  110s
H    0     0                    534164.00000 503242.331  5.79%     -  128s
     0     2 503242.331    0 30616 534164.000 503242.331  5.79%     -  172s
     1     3 503556.813    1 30543 534164.000 503242.331  5.79% 21844  300s

Explored 2 nodes (43148 simplex iterations) in 300.10 seconds
Thread count was 8 (of 8 available processors)

Solution count 4: 534164 534166 535018 676302 

Time limit reached
Best objective 5.341640000000e+05, best bound 5.032423313582e+05, gap 5.7888%

User-callback calls 23410, time in user-callback 0.16 sec
Solution written to /Users/mdeboute/Desktop/Etudes/Master/M2/S9/GOPP/Projet/multi-period-flp/solution/instSingle_I30_J1000_T8_1_result.txt
